Maximize
.01
Subject To
Copper: .06 Pennies + 2.1 Dimes + 3.8 Nickels + 5.2 Quarters + 7.2 Dollars -
Cu = 0
Nickel: 1.2 Nickels + .2 Dimes + .5 Quarters + .2 Dollars -
Ni = 0
Manganese: .3 Dollars - Mn = 0
Zinc: 2.4 Pennies + .5 Dollars - Zi = 0
Bounds
Cu <= 1000
Ni <= 50
Zi <= 50
Mn <= 50
Integers
Pennies Dimes Nickels Quarters Dollars
End
